000 -99 000 000 -99 -99 -99 -99 -99 -99 -99 -99 -99 -99 000 -99 -99 -99 000 000 -99 000 -99 000 000 -99 000 000 -99 -99 -99
000 -99 000 000 000 -99 -99 000 000 -99 -99 000 000 -99 000 000 -99 -99 -99 -99 -99 000 000 -99 000 -99 -99 000 -99 -99 -99
-99 -99 -99 000 000 -99 000 000 000 -99 -99 000 000 -99 000 000 -99 -99 -99 -99 -99 000 000 000 000 000 -99 000 000 -99 -99
-99 -99 000 000 000 000 000 000 000 000 -99 -99 -99 -99 -99 -99 -99 000 000 000 000 -99 000 000 000 000 -99 000 000 -99 -99
-99 000 000 000 000 000 000 000 000 000 -99 -99 -99 -99 -99 -99 -99 000 000 -99 000 -99 000 000 000 000 -99 -99 -99 -99 -99
-99 000 000 000 000 000 000 000 000 000 -99 -99 -99 -99 -99 -99 -99 -99 -99 -99 000 000 -99 000 000 -99 -99 -99 -99 -99 000
000 000 000 000 000 000 000 000 000 000 -99 -99 000 -99 -99 -99 -99 -99 -99 -99 000 000 -99 000 000 -99 -99 -99 -99 -99 -99
000 000 000 000 000 000 -99 -99 -99 000 -99 -99 000 -99 -99 -99 000 000 -99 -99 000 000 -99 000 000 -99 -99 -99 -99 000 -99
000 000 000 000 000 000 -99 -99 000 000 000 000 -99 -99 -99 -99 000 000 -99 000 000 -99 -99 -99 000 -99 -99 -99 -99 000 000
000 000 -99 000 000 000 -99 000 000 000 000 000 -99 -99 -99 000 000 000 000 000 000 000 -99 -99 -99 -99 -99 000 000 000 000
000 000 -99 000 000 000 000 000 000 000 000 000 000 -99 000 000 000 000 000 -99 000 000 -99 -99 -99 -99 000 000 000 000 000
000 000 000 000 000 000 000 000 000 000 000 000 000 -99 000 000 000 000 000 000 000 -99 -99 000 -99 -99 000 000 -99 000 000
000 000 000 000 000 000 000 000 000 000 000 000 000 -99 000 000 000 000 000 000 000 000 -99 000 000 -99 000 000 000 -99 000
000 000 000 000 000 000 000 000 000 000 000 000 000 000 -99 000 000 000 000 000 000 000 -99 000 000 000 000 000 000 -99 000
000 000 000 000 000 000 000 000 000 -99 -99 000 000 000 -99 -99 -99 000 000 -99 000 000 -99 000 000 000 000 000 000 -99 -99
000 000 000 000 000 000 000 000 000 -99 -99 -99 000 000 -99 -99 -99 000 000 -99 -99 000 -99 -99 000 000 000 000 000 000 -99
000 000 -99 -99 000 000 000 000 000 -99 -99 -99 -99 000 000 -99 -99 -99 000 -99 -99 000 000 -99 -99 000 -99 000 000 000 000
000 000 000 -99 -99 000 000 000 000 -99 -99 -99 -99 000 000 000 000 -99 -99 -99 -99 000 000 -99 -99 -99 -99 000 000 000 000
000 000 000 000 -99 -99 000 000 -99 -99 -99 000 -99 000 000 000 000 -99 -99 -99 000 000 000 -99 -99 -99 000 000 000 000 000
000 000 000 000 -99 -99 000 000 000 -99 000 000 -99 000 000 -99 000 000 000 -99 000 000 000 -99 -99 -99 -99 -99 -99 -99 -99
000 000 000 000 000 -99 -99 000 000 000 000 -99 -99 -99 -99 -99 000 000 000 -99 000 -99 000 -99 -99 -99 -99 -99 -99 -99 -99
000 000 000 000 000 000 000 000 000 000 000 -99 -99 -99 -99 -99 000 000 000 000 000 -99 000 -99 -99 -99 -99 -99 -99 -99 -99
000 000 000 000 000 000 000 000 000 000 -99 -99 000 000 -99 -99 000 000 000 000 000 000 000 -99 -99 -99 -99 -99 -99 -99 -99
000 000 000 000 000 000 000 000 000 -99 -99 -99 000 000 000 -99 000 000 000 000 000 000 000 -99 -99 -99 -99 -99 -99 -99 -99
000 000 000 000 000 000 000 000 000 000 000 -99 000 000 000 000 000 000 000 000 000 000 000 -99 -99 -99 -99 -99 -99 -99 -99
000 000 000 000 000 000 000 000 000 000 000 -99 000 000 000 000 000 000 000 000 000 -99 -99 -99 -99 -99 -99 -99 -99 -99 -99
000 000 000 000 000 000 000 000 000 -99 -99 -99 -99 -99 -99 000 000 000 000 000 000 000 -99 -99 -99 -99 -99 -99 -99 000 -99
000 000 000 000 000 000 000 000 000 -99 -99 -99 -99 -99 000 000 000 000 000 000 -99 000 -99 -99 -99 -99 -99 -99 -99 000 000
000 000 000 000 000 000 000 000 000 000 -99 -99 -99 000 000 000 000 000 000 000 000 000 -99 -99 -99 -99 -99 -99 -99 -99 000
000 000 000 000 000 000 000 000 000 000 -99 -99 -99 000 000 000 000 000 000 000 000 000 -99 -99 -99 -99 -99 -99 -99 -99 -99
000 000 000 000 000 000 -99 000 000 -99 -99 -99 -99 000 000 000 000 000 000 000 -99 000 -99 000 -99 -99 -99 -99 -99 -99 -99
000 000 000 000 000 000 -99 000 000 -99 -99 -99 -99 000 000 -99 000 000 000 -99 000 000 000 000 000 000 -99 -99 000 -99 -99
000 000 000 000 000 000 000 000 -99 -99 -99 -99 -99 000 000 -99 000 000 000 -99 -99 000 000 000 000 000 -99 000 000 000 000
002 000 000 000 000 000 000 000 000 -99 -99 -99 -99 000 000 000 000 000 -99 -99 -99 000 000 000 000 000 000 000 000 000 000
002 000 000 000 000 000 000 000 000 -99 -99 -99 -99 000 000 000 000 000 -99 -99 000 000 000 000 000 000 000 000 000 000 000
001 000 000 000 000 000 000 000 000 000 -99 -99 -99 -99 000 000 000 000 -99 -99 000 000 000 000 000 000 000 000 000 000 000
000 000 000 000 000 000 000 000 000 000 000 -99 -99 -99 000 000 000 000 -99 000 000 000 000 -99 000 000 000 000 000 000 000
000 000 000 000 000 000 000 000 000 000 000 000 000 000 000 000 000 000 -99 -99 000 000 000 000 -99 -99 000 000 000 000 000
004 000 000 000 000 000 000 000 000 000 000 000 000 000 000 000 000 000 000 -99 000 000 000 000 000 -99 -99 000 001 001 001
012 002 000 000 003 002 002 002 003 001 000 000 000 000 000 000 000 000 -99 -99 000 -99 -99 000 -99 -99 000 001 002 009 002
009 006 003 006 005 012 008 010 019 002 000 000 001 000 000 000 000 -99 -99 -99 -99 -99 -99 000 -99 000 000 001 004 037 005
008 009 009 010 005 010 012 021 020 004 000 002 012 000 001 000 000 000 -99 -99 -99 000 000 000 000 -99 -99 001 004 021 002
005 012 019 008 003 003 013 018 017 008 003 017 017 006 011 001 000 000 000 -99 000 000 000 000 000 000 -99 000 005 004 000
004 008 011 013 005 004 017 010 026 047 025 032 024 027 013 003 000 000 000 000 000 000 000 000 000 000 -99 000 002 003 000
003 003 005 005 010 003 006 009 021 047 026 042 031 025 014 002 000 000 000 000 000 000 000 000 000 -99 000 000 002 002 -99
001 001 001 002 008 003 004 012 034 022 025 028 031 029 013 001 000 000 000 000 000 000 -99 000 000 000 000 000 -99 -99 000
001 001 001 000 001 002 005 013 007 017 029 033 038 021 010 001 000 000 000 000 000 000 000 000 000 -99 000 -99 -99 -99 -99
001 001 000 000 000 001 005 007 003 013 015 045 058 028 008 003 001 000 000 000 000 000 000 000 -99 -99 -99 -99 -99 -99 -99
000 000 000 000 000 001 005 001 002 007 028 052 030 040 009 006 002 000 000 000 000 000 000 000 -99 -99 -99 -99 -99 -99 -99
000 000 001 000 000 001 002 002 001 003 006 028 047 039 024 012 003 001 000 000 000 000 000 000 -99 -99 -99 -99 -99 -99 -99
000 000 001 000 001 007 009 001 000 000 006 048 047 056 033 021 003 002 000 000 000 000 000 -99 -99 -99 -99 -99 -99 -99 -99
000 002 006 000 011 032 016 000 000 001 016 057 068 040 026 011 004 001 000 000 000 000 000 -99 -99 -99 -99 -99 -99 -99 -99
000 004 001 002 039 039 007 000 -99 009 043 044 037 039 021 003 003 000 000 -99 000 000 -99 -99 -99 -99 -99 -99 -99 -99 -99
001 003 003 016 027 007 001 000 -99 003 022 021 018 014 011 002 003 000 -99 000 -99 000 -99 -99 -99 -99 -99 -99 -99 -99 -99
001 010 004 004 004 001 000 000 001 000 003 002 004 004 002 001 000 000 -99 -99 -99 -99 -99 -99 -99 -99 -99 -99 -99 -99 -99
